##############

pair_style     gcnff
pair_coeff      * * potential.txt Hf O

##############